(set-info :status unsat) ; swine result
(set-logic ALL)
(declare-fun i1 () Int)
(declare-fun it1687 () Int)
(declare-fun it1688 () Int)
(declare-fun i2 () Int)
(declare-fun it1689 () Int)
(declare-fun i3 () Int)
(declare-fun it1690 () Int)
(declare-fun i4 () Int)
(declare-fun it1691 () Int)
(declare-fun i5 () Int)
(declare-fun it1692 () Int)
(declare-fun i6 () Int)
(declare-fun i7 () Int)
(declare-fun it1693 () Int)
(declare-fun it1694 () Int)
(declare-fun it1695 () Int)
(declare-fun it1696 () Int)
(declare-fun it1697 () Int)
(declare-fun it1698 () Int)
(declare-fun it1699 () Int)
(declare-fun it1700 () Int)
(declare-fun it1814 () Int)
(declare-fun it1815 () Int)
(declare-fun it1816 () Int)
(declare-fun it1817 () Int)
(declare-fun it1818 () Int)
(declare-fun it1819 () Int)
(declare-fun it1820 () Int)
(declare-fun it1822 () Int)
(declare-fun it1823 () Int)
(declare-fun it1824 () Int)
(declare-fun it1825 () Int)
(declare-fun it1826 () Int)
(declare-fun it1827 () Int)
(declare-fun it1828 () Int)
(declare-fun it1918 () Int)
(declare-fun it1919 () Int)
(declare-fun it1920 () Int)
(declare-fun it1921 () Int)
(declare-fun it1922 () Int)
(declare-fun it1923 () Int)
(declare-fun it1924 () Int)
(declare-fun it1925 () Int)
(declare-fun it1926 () Int)
(declare-fun it1927 () Int)
(declare-fun it1928 () Int)
(declare-fun it1929 () Int)
(declare-fun it1930 () Int)
(declare-fun it1931 () Int)
(declare-fun it1949 () Int)
(declare-fun it1950 () Int)
(declare-fun it1951 () Int)
(declare-fun it1952 () Int)
(declare-fun it1953 () Int)
(declare-fun it1954 () Int)
(declare-fun it1955 () Int)
(declare-fun it1956 () Int)
(declare-fun it1957 () Int)
(declare-fun it1958 () Int)
(declare-fun it1959 () Int)
(declare-fun it1960 () Int)
(declare-fun it1961 () Int)
(declare-fun it1962 () Int)
(declare-fun it1965 () Int)
(declare-fun it1966 () Int)
(declare-fun it1967 () Int)
(declare-fun it1968 () Int)
(declare-fun it1969 () Int)
(declare-fun it1970 () Int)
(declare-fun it1971 () Int)
(declare-fun it1973 () Int)
(declare-fun it1974 () Int)
(declare-fun it1975 () Int)
(declare-fun it1976 () Int)
(declare-fun it1977 () Int)
(declare-fun it1978 () Int)
(declare-fun it1979 () Int)
(declare-fun it1984 () Int)
(declare-fun it1985 () Int)
(declare-fun it1986 () Int)
(declare-fun it1987 () Int)
(declare-fun it1988 () Int)
(declare-fun it1989 () Int)
(declare-fun it1990 () Int)
(declare-fun it1992 () Int)
(declare-fun it1993 () Int)
(declare-fun it1994 () Int)
(declare-fun it1995 () Int)
(declare-fun it1996 () Int)
(declare-fun it1997 () Int)
(declare-fun it1998 () Int)
(declare-fun it2001 () Int)
(declare-fun it2002 () Int)
(declare-fun it2003 () Int)
(declare-fun it2004 () Int)
(declare-fun it2005 () Int)
(declare-fun it2006 () Int)
(declare-fun it2007 () Int)
(declare-fun it316 () Int)
(assert (= (+ i1 (- 1)) 0))
(assert (= (+ it1687 (- 5)) 0))
(assert (= (+ (* i2 (- 1)) it1688 (- 4)) 0))
(assert (= (+ (* i3 (- 1)) it1689) 0))
(assert (= (+ (* i4 (- 1)) it1690) 0))
(assert (= (+ (* i5 (- 1)) it1691) 0))
(assert (= (+ (* i6 (- 1)) it1692) 0))
(assert (= (+ it1693 (* i7 (- 1))) 0))
(assert (and (= (+ it1687 (- 5)) 0) (> (+ it1690 (- 2)) 0)))
(assert (= (+ it1694 (- 18)) 0))
(assert (= (+ it1695 (* it1688 (- 1)) (- 12)) 0))
(assert (= (+ it1696 (* it1689 (- 1))) 0))
(assert (= (+ (* it1690 (- 1)) it1697) 0))
(assert (= (+ it1698 (* it1691 (- 1))) 0))
(assert (= it1699 0))
(assert (= (+ (* it1693 (- 1)) it1700) 0))
(assert (and (= (+ it1694 (- 18)) 0) (<= (+ it1699 (* it1697 (- 1)) 2) 0)))
(assert (= (+ it1814 (- 20)) 0))
(assert (= (+ (* it1695 (- 1)) it1815 (- 2)) 0))
(assert (= (+ (* it1696 (- 1)) it1816) 0))
(assert (= (+ it1817 (* it1697 (- 1))) 0))
(assert (= it1818 0))
(assert (= (+ (* it1699 (- 1)) it1819) 0))
(assert (= (+ it1820 (* it1700 (- 1))) 0))
(assert (and (<= (+ (* it1817 (- 1)) (* it1818 2) it1819 3) 0) (= (+ it1814 (- 20)) 0)))
(assert (= (+ it1822 (- 21)) 0))
(assert (= (+ (* it1815 (- 1)) it1823 (- 1)) 0))
(assert (= (+ it1824 (* it1816 (- 1))) 0))
(assert (= (+ (* it1817 (- 1)) it1825) 0))
(assert (= (+ (* it1818 (- 1)) it1826) 0))
(assert (= (+ it1827 (* it1819 (- 1))) 0))
(assert (= (+ (* it1820 (- 1)) it1828) 0))
(assert (and (= (+ it1822 (- 21)) 0) (< (+ it1827 (* it1825 (- 1)) (* it1826 2) 3) 0)))
(assert (= (+ it1918 (- 24)) 0))
(assert (= (+ it1919 (* it1823 (- 1)) (- 1)) 0))
(assert (= (+ (* it1824 (- 1)) it1920) 0))
(assert (= (+ it1921 (* it1825 (- 1))) 0))
(assert (= (+ it1922 (* it1826 (- 1))) 0))
(assert (= (+ (* it1827 (- 1)) it1923) 0))
(assert (= (+ it1924 (* it1828 (- 1))) 0))
(assert (= (+ it1918 (- 24)) 0))
(assert (= (+ it1925 (- 26)) 0))
(assert (= (+ (* it1919 (- 1)) it1926 (- 2)) 0))
(assert (= (+ it1927 (* it1920 (- 1))) 0))
(assert (= (+ (* it1921 (- 1)) it1928) 0))
(assert (= (+ (* it1922 (- 1)) it1929) 0))
(assert (= (+ (* it1923 (- 1)) it1930) 0))
(assert (= (+ it1931 (* it1922 (- 2)) (- 2)) 0))
(assert (let ((a!1 (> (+ (+ it1928 (* it1930 (- 1))) (- 4)) 0))
      (a!2 (>= (+ (+ it1928 (* it1930 (- 1))) (- 5)) 0))
      (a!3 (>= (+ (+ it1928 (* it1930 (- 1))) (- 4)) 0))
      (a!4 (>= (+ (+ it1928 (* it1930 (- 1))) (- 3)) 0)))
  (and a!1
       (> (+ it1928 it1930 3) 0)
       (> 1 0)
       (>= (+ (* it1925 (- 1)) 26) 0)
       (>= (+ it1925 (- 26)) 0)
       a!2
       a!3
       a!4)))
(assert (= (+ (* it1925 (- 1)) it1949) 0))
(assert (= (+ (* it1928 (- 11)) (* it1926 (- 1)) it1950 (* it1930 11) 44) 0))
(assert (= (+ it1951 (* it1928 (- 1)) 4) 0))
(assert (= (+ (* it1928 (- 1)) it1952) 0))
(assert (= it1953 0))
(assert (= (+ it1954 (* it1928 (- 1)) 4) 0))
(assert (= (+ it1955 (- 1)) 0))
(assert (= (+ it1949 (- 26)) 0))
(assert (= (+ it1956 (- 20)) 0))
(assert (= (+ it1957 (* it1950 (- 1)) (- 1)) 0))
(assert (= (+ it1958 (* it1951 (- 1))) 0))
(assert (= (+ it1959 (* it1952 (- 1))) 0))
(assert (= (+ (* it1952 (- 1)) it1960) 0))
(assert (= (+ it1961 (* it1954 (- 1))) 0))
(assert (= (+ it1962 (* it1955 (- 1))) 0))
(assert (and (= (+ it1956 (- 20)) 0) (> (+ it1961 (* it1959 (- 1)) (* it1960 2) 3) 0)))
(assert (= (+ it1965 (- 18)) 0))
(assert (= (+ it1966 (* it1957 (- 1)) (- 4)) 0))
(assert (= (+ (* it1961 (- 1)) it1967 (- 1)) 0))
(assert (= (+ it1968 (* it1959 (- 1))) 0))
(assert (= (+ it1969 (* it1960 (- 1))) 0))
(assert (= (+ (* it1961 (- 1)) it1970 (- 1)) 0))
(assert (= (+ it1971 (* it1962 (- 1))) 0))
(assert (and (= (+ it1965 (- 18)) 0) (<= (+ (* it1968 (- 1)) it1970 2) 0)))
(assert (= (+ it1973 (- 20)) 0))
(assert (= (+ (* it1966 (- 1)) it1974 (- 2)) 0))
(assert (= (+ it1975 (* it1967 (- 1))) 0))
(assert (= (+ (* it1968 (- 1)) it1976) 0))
(assert (= it1977 0))
(assert (= (+ it1978 (* it1970 (- 1))) 0))
(assert (= (+ (* it1971 (- 1)) it1979) 0))
(assert (and (<= (+ it1978 (* it1976 (- 1)) (* it1977 2) 3) 0) (= (+ it1973 (- 20)) 0)))
(assert (= (+ it1984 (- 21)) 0))
(assert (= (+ it1985 (* it1974 (- 1)) (- 1)) 0))
(assert (= (+ (* it1975 (- 1)) it1986) 0))
(assert (= (+ (* it1976 (- 1)) it1987) 0))
(assert (= (+ it1988 (* it1977 (- 1))) 0))
(assert (= (+ (* it1978 (- 1)) it1989) 0))
(assert (= (+ (* it1979 (- 1)) it1990) 0))
(assert (and (= (+ it1984 (- 21)) 0) (= (+ (* it1988 2) it1989 (* it1987 (- 1)) 3) 0)))
(assert (= (+ it1992 (- 26)) 0))
(assert (= (+ (* it1985 (- 1)) it1993 (- 2)) 0))
(assert (= (+ (* it1986 (- 1)) it1994) 0))
(assert (= (+ it1995 (* it1987 (- 1))) 0))
(assert (= (+ (* it1988 (- 1)) it1996) 0))
(assert (= (+ (* it1989 (- 1)) it1997) 0))
(assert (= (+ (* it1988 (- 2)) it1998 (- 1)) 0))
(assert (= (+ it1992 (- 26)) 0))
(assert (= (+ it2001 (- 20)) 0))
(assert (= (+ (* it1993 (- 1)) it2002 (- 1)) 0))
(assert (= (+ it2003 (* it1994 (- 1))) 0))
(assert (= (+ (* it1995 (- 1)) it2004) 0))
(assert (= (+ (* it1995 (- 1)) it2005) 0))
(assert (= (+ it2006 (* it1997 (- 1))) 0))
(assert (= (+ it2007 (* it1998 (- 1))) 0))
(assert (let ((a!1 (+ (+ 0 (* it2006 (- 1)))
              (* (exp 2 (+ it316 (- 1))) (+ 0 it2005) (+ 0 (- 2)))
              (+ 0 it2004)
              (* (exp 2 it316) (+ 0 (- 2)))
              (+ 0 1))))
  (and (>= a!1 (+ 0 0))
       (> a!1 (+ 0 0))
       (>= (+ it2001 (- 20)) 0)
       (>= (+ (* it2006 (- 1)) it2004 (* it2005 (- 2)) (- 3)) 0)
       (> (+ (* it2006 (- 1)) it2004 (* it2005 (- 2)) (- 3)) 0)
       (>= (+ it316 (- 1)) 0)
       (>= (+ (* it2001 (- 1)) 20) 0))))
(check-sat)
